coords = array2d(1..74, 1..2, [54, 428, 194, 285, 318, 146, 441, 450, 790, 39,
    951, 502, 441, 389, 535, 47, 652, 93, 727, 431, 770, 375, 80, 889,
    704, 57, 521, 301, 403, 677, 649, 976, 773, 677, 268, 377, 253,
    906, 603, 205, 683, 626, 688, 773, 347, 538, 822, 679, 865, 596,
    579, 995, 703, 343, 317, 174, 248, 991, 248, 224, 717, 223, 872,
    301, 926, 270, 982, 653, 360, 540, 404, 743, 431, 612, 191, 686,
    257, 401, 603, 570, 578, 675, 114, 527, 36, 623, 826, 921, 648,
    673, 365, 471, 925, 828, 993, 12, 82, 758, 119, 307, 458, 497,
    467, 50, 642, 555, 6, 575, 811, 550, 134, 217, 122, 368, 307, 583,
    171, 751, 149, 492, 734, 580, 926, 38, 539, 74, 173, 954, 995,
    993, 658, 682, 714, 230, 54, 449, 686, 627, 844, 181, 585, 373,
    827, 222, 279, 166, 240, 136]);

n = 74;

